\ Date: 1921.10
\ Cycle: 01
\ Solver: XA

\ objective function 
Maximize
+ 5.0 x
+ 5.0 y

\ constraint
Subject To
g0:  + x + y <= 100.0
gx1:  + x = 1.0
gy1:  + y = 1.0

\ dvar
Bounds

End




\ objective value:   10.0
